NAME: Random ATSP Instance
TYPE: ATSP
DIMENSION: 10
EDGE_WEIGHT_TYPE: EXPLICIT
EDGE_WEIGHT_FORMAT: FULL_MATRIX
EDGE_WEIGHT_SECTION
9999 10 1 8 19 3 8 15 9 9
15 9999 11 1 3 4 2 5 17 11
20 11 9999 7 3 17 8 10 3 7
13 17 2 9999 16 19 19 18 8 5
5 1 14 7 9999 3 16 17 4 4
19 11 12 5 17 9999 14 16 17 5
18 15 13 15 18 7 9999 20 1 14
20 20 11 19 17 14 12 9999 15 20
13 9 8 7 11 9 8 11 9999 20
11 14 1 6 9 20 8 12 13 9999
EOF
